r = [
0,35,7,30,51,26,31,6,48,40,26,0
];
p = [
0,6,20,8,16,7,2,10,4,11,18,0
];
e = [
0,7,7,17,5,5,8,2,9,20,7,0
];
d = [
0,87,57,76,106,81,83,54,97,93,79,108
];
d_bar = [
0,88,59,77,108,82,84,55,98,94,81,108
];
w = [
0,7,3.5,17,2.5,5,8,2,9,20,3.5,0
];
